22      4       
10      10      10      10      
0       0       0       0       0       4       2       3       4       5       
10      0       4       3       6       1       8       
2       0       0       8       0       1       14      
7       9       0       0       6       1       6       
10      0       6       0       0       3       7       10      11      
1       0       3       5       5       1       9       
7       0       0       0       1       1       15      
1       4       4       0       1       1       10      
5       0       0       2       3       1       11      
10      0       1       0       0       1       12      
5       10      7       6       0       1       13      
2       1       8       7       7       1       19      
1       0       2       0       0       1       16      
1       0       7       4       0       1       21      
3       0       0       5       0       1       17      
1       0       7       2       9       1       18      
10      3       3       7       6       1       20      
10      0       3       0       0       1       22      
9       8       0       9       0       1       22      
10      0       10      0       0       1       22      
3       0       0       0       2       1       22      
0       0       0       0       0       0       
